p td 600 1465 
462 3
462 5
462 15
462 22
462 51
462 55
462 56
462 63
462 65
462 66
462 70
462 73
462 76
462 77
462 89
462 92
462 104
462 106
462 113
462 121
462 123
462 130
462 133
462 137
462 139
462 140
462 155
462 156
462 160
462 165
462 172
462 180
462 183
462 186
462 187
462 189
462 197
462 200
462 215
462 222
462 227
462 228
462 237
462 242
462 250
462 253
462 257
462 262
462 264
462 265
462 266
462 269
462 274
462 278
462 279
462 281
462 282
462 283
462 284
462 299
462 300
462 303
462 306
462 314
462 322
462 328
462 340
462 342
462 354
462 355
462 358
462 367
462 369
462 370
462 377
462 379
462 380
462 384
462 391
462 403
462 411
462 412
462 419
462 421
462 428
462 433
462 435
462 439
462 442
462 443
462 445
462 452
462 458
462 460
462 464
462 476
462 477
462 478
462 479
462 482
462 483
462 489
462 500
462 502
462 503
462 504
462 507
462 518
462 523
462 527
462 539
462 554
462 563
462 565
462 569
462 574
462 586
462 595
129 7
129 11
129 15
129 18
129 23
129 31
129 42
129 56
129 59
129 62
129 66
129 68
129 78
129 84
129 86
129 87
129 88
129 91
129 92
129 95
129 96
129 99
129 103
129 106
129 111
129 120
129 123
129 127
129 128
129 133
129 139
129 141
129 149
129 154
129 158
129 161
129 170
129 174
129 193
129 197
129 200
129 205
129 206
129 210
129 217
129 220
129 221
129 233
129 234
129 244
129 251
129 254
129 261
129 268
129 278
129 279
129 282
129 288
129 289
129 292
129 293
129 300
129 301
129 303
129 306
129 309
129 311
129 323
129 329
129 331
129 334
129 336
129 337
129 355
129 357
129 367
129 373
129 380
129 388
129 389
129 401
129 403
129 407
129 414
129 417
129 419
129 421
129 428
129 450
129 453
129 459
129 460
129 461
129 463
129 471
129 479
129 480
129 482
129 486
129 490
129 492
129 493
129 496
129 497
129 506
129 510
129 512
129 517
129 518
129 520
129 525
129 527
129 531
129 537
129 540
129 547
129 550
129 552
129 555
129 556
129 558
129 561
129 565
129 568
129 574
129 581
129 584
129 585
129 589
129 590
129 591
129 593
129 598
129 600
149 10
149 15
149 17
149 18
149 26
149 30
149 35
149 47
149 52
149 57
149 62
149 72
149 77
149 80
149 88
149 92
149 95
149 104
149 107
149 109
149 116
149 121
149 133
149 151
149 162
149 165
149 171
149 174
149 182
149 183
149 184
149 186
149 201
149 211
149 214
149 216
149 218
149 221
149 224
149 225
149 229
149 231
149 238
149 239
149 243
149 244
149 246
149 251
149 271
149 273
149 274
149 275
149 276
149 282
149 284
149 291
149 300
149 306
149 314
149 327
149 328
149 341
149 342
149 364
149 369
149 372
149 379
149 384
149 387
149 388
149 392
149 404
149 409
149 412
149 413
149 427
149 428
149 434
149 437
149 444
149 447
149 461
149 462
149 464
149 467
149 479
149 484
149 487
149 494
149 509
149 523
149 529
149 541
149 545
149 547
149 553
149 554
149 555
149 557
149 559
149 563
149 574
149 588
149 593
149 594
149 599
455 4
455 10
455 46
455 54
455 55
455 63
455 65
455 69
455 72
455 76
455 77
455 84
455 86
455 99
455 105
455 109
455 115
455 117
455 125
455 132
455 133
455 137
455 146
455 148
455 151
455 155
455 164
455 168
455 169
455 172
455 173
455 183
455 185
455 196
455 197
455 199
455 203
455 204
455 206
455 210
455 212
455 216
455 217
455 219
455 222
455 228
455 231
455 234
455 238
455 246
455 257
455 274
455 282
455 285
455 286
455 287
455 302
455 303
455 307
455 310
455 322
455 323
455 325
455 328
455 329
455 336
455 342
455 346
455 347
455 348
455 350
455 358
455 362
455 367
455 368
455 369
455 372
455 374
455 375
455 377
455 378
455 385
455 386
455 395
455 397
455 400
455 402
455 405
455 408
455 410
455 417
455 421
455 427
455 430
455 435
455 436
455 441
455 444
455 447
455 449
455 450
455 451
455 460
455 464
455 471
455 475
455 482
455 494
455 499
455 504
455 508
455 513
455 514
455 516
455 524
455 525
455 527
455 528
455 531
455 533
455 534
455 537
455 538
455 552
455 554
455 558
455 560
455 563
455 576
455 578
455 582
455 587
455 597
455 600
76 9
76 19
76 23
76 24
76 34
76 35
76 37
76 39
76 59
76 65
76 70
76 74
76 86
76 89
76 92
76 103
76 105
76 110
76 115
76 119
76 124
76 126
76 128
76 143
76 145
76 151
76 160
76 167
76 172
76 183
76 188
76 191
76 193
76 212
76 217
76 219
76 220
76 228
76 236
76 237
76 250
76 254
76 255
76 256
76 257
76 258
76 260
76 268
76 270
76 274
76 276
76 277
76 284
76 285
76 286
76 287
76 288
76 292
76 294
76 301
76 302
76 313
76 314
76 321
76 323
76 327
76 328
76 332
76 333
76 334
76 336
76 337
76 345
76 349
76 352
76 355
76 359
76 361
76 366
76 367
76 375
76 382
76 392
76 397
76 406
76 417
76 420
76 421
76 427
76 429
76 432
76 445
76 448
76 452
76 457
76 460
76 464
76 466
76 473
76 476
76 481
76 482
76 491
76 498
76 500
76 502
76 503
76 522
76 524
76 525
76 526
76 528
76 531
76 542
76 545
76 547
76 548
76 550
76 554
76 556
76 562
76 564
76 565
76 566
76 569
76 570
76 571
76 573
76 577
76 581
76 586
76 588
322 14
322 22
322 25
322 38
322 43
322 44
322 48
322 61
322 62
322 66
322 67
322 69
322 70
322 83
322 87
322 88
322 91
322 92
322 100
322 103
322 111
322 131
322 133
322 134
322 137
322 139
322 140
322 144
322 148
322 149
322 150
322 151
322 158
322 159
322 172
322 173
322 183
322 186
322 187
322 188
322 189
322 197
322 198
322 204
322 211
322 212
322 220
322 223
322 228
322 231
322 235
322 236
322 248
322 251
322 257
322 260
322 261
322 262
322 266
322 269
322 278
322 308
322 316
322 320
322 322
322 326
322 332
322 345
322 356
322 359
322 363
322 365
322 380
322 389
322 392
322 393
322 407
322 414
322 415
322 416
322 420
322 429
322 431
322 441
322 442
322 444
322 448
322 449
322 454
322 456
322 464
322 470
322 472
322 481
322 487
322 495
322 496
322 508
322 509
322 512
322 516
322 517
322 531
322 535
322 542
322 551
322 553
322 560
322 563
322 568
322 569
322 581
322 583
322 584
322 586
322 588
322 596
499 14
499 15
499 26
499 27
499 34
499 37
499 41
499 44
499 52
499 55
499 65
499 74
499 75
499 86
499 89
499 92
499 95
499 96
499 106
499 107
499 112
499 115
499 116
499 118
499 131
499 138
499 141
499 145
499 146
499 147
499 149
499 153
499 154
499 170
499 172
499 175
499 176
499 178
499 180
499 188
499 195
499 197
499 205
499 209
499 222
499 228
499 232
499 245
499 246
499 249
499 250
499 255
499 257
499 262
499 277
499 279
499 281
499 285
499 288
499 289
499 302
499 305
499 308
499 309
499 314
499 317
499 325
499 330
499 331
499 347
499 354
499 355
499 361
499 362
499 364
499 365
499 366
499 369
499 374
499 377
499 378
499 381
499 390
499 394
499 396
499 399
499 413
499 415
499 416
499 419
499 423
499 430
499 440
499 449
499 456
499 463
499 469
499 471
499 480
499 481
499 488
499 490
499 494
499 501
499 506
499 513
499 520
499 522
499 523
499 535
499 536
499 538
499 540
499 543
499 548
499 566
499 567
499 568
499 569
499 572
499 592
499 595
499 598
592 10
592 11
592 12
592 14
592 25
592 33
592 35
592 36
592 41
592 45
592 48
592 63
592 65
592 81
592 101
592 102
592 106
592 114
592 119
592 122
592 124
592 127
592 128
592 131
592 135
592 141
592 148
592 149
592 157
592 159
592 161
592 165
592 168
592 170
592 176
592 177
592 178
592 183
592 185
592 190
592 191
592 194
592 198
592 205
592 214
592 215
592 222
592 229
592 234
592 236
592 237
592 245
592 247
592 268
592 283
592 287
592 293
592 295
592 302
592 306
592 315
592 322
592 338
592 340
592 350
592 353
592 354
592 356
592 358
592 359
592 366
592 368
592 374
592 376
592 381
592 382
592 388
592 390
592 391
592 392
592 400
592 405
592 413
592 418
592 433
592 434
592 436
592 438
592 440
592 441
592 443
592 454
592 459
592 460
592 463
592 467
592 471
592 473
592 475
592 476
592 480
592 483
592 485
592 490
592 491
592 492
592 493
592 495
592 498
592 499
592 502
592 511
592 513
592 516
592 518
592 519
592 522
592 523
592 531
592 532
592 543
592 558
592 563
592 564
592 566
592 569
592 574
592 578
592 582
592 583
592 586
592 595
96 10
96 17
96 34
96 35
96 42
96 48
96 49
96 54
96 58
96 64
96 68
96 69
96 81
96 88
96 97
96 99
96 110
96 118
96 123
96 134
96 144
96 148
96 150
96 157
96 167
96 170
96 175
96 185
96 192
96 195
96 198
96 215
96 219
96 220
96 221
96 228
96 235
96 238
96 240
96 243
96 246
96 248
96 259
96 260
96 262
96 268
96 269
96 271
96 276
96 285
96 288
96 297
96 298
96 299
96 301
96 303
96 308
96 315
96 318
96 320
96 321
96 323
96 325
96 329
96 331
96 335
96 338
96 340
96 372
96 373
96 375
96 384
96 385
96 387
96 388
96 390
96 405
96 406
96 412
96 415
96 418
96 430
96 432
96 437
96 444
96 448
96 450
96 455
96 456
96 468
96 470
96 492
96 493
96 501
96 507
96 514
96 516
96 518
96 528
96 537
96 538
96 540
96 542
96 545
96 547
96 553
96 559
96 568
96 571
96 573
96 574
96 581
96 582
96 583
96 592
96 593
96 594
96 595
96 599
549 13
549 22
549 24
549 25
549 41
549 45
549 54
549 57
549 61
549 62
549 65
549 66
549 67
549 79
549 90
549 108
549 109
549 110
549 111
549 114
549 123
549 125
549 145
549 148
549 155
549 164
549 171
549 186
549 187
549 192
549 202
549 204
549 207
549 209
549 212
549 222
549 228
549 232
549 236
549 237
549 238
549 239
549 240
549 243
549 248
549 251
549 252
549 256
549 257
549 269
549 272
549 273
549 277
549 280
549 282
549 288
549 291
549 293
549 299
549 305
549 309
549 310
549 335
549 340
549 342
549 353
549 360
549 362
549 365
549 368
549 371
549 375
549 376
549 385
549 389
549 393
549 399
549 401
549 406
549 420
549 433
549 447
549 453
549 455
549 460
549 467
549 469
549 480
549 483
549 488
549 490
549 496
549 501
549 503
549 518
549 521
549 523
549 530
549 540
549 542
549 543
549 545
549 546
549 553
549 555
549 556
549 557
549 569
549 573
549 574
549 579
549 582
549 587
549 588
549 594
549 595
549 600
344 14
344 29
344 34
344 37
344 43
344 44
344 51
344 56
344 68
344 71
344 72
344 84
344 95
344 115
344 119
344 122
344 123
344 132
344 133
344 143
344 147
344 157
344 158
344 159
344 171
344 172
344 194
344 197
344 201
344 202
344 208
344 212
344 214
344 216
344 223
344 226
344 228
344 229
344 230
344 232
344 235
344 249
344 251
344 258
344 263
344 264
344 271
344 274
344 277
344 294
344 295
344 296
344 307
344 309
344 319
344 324
344 327
344 328
344 333
344 335
344 346
344 352
344 362
344 363
344 367
344 369
344 377
344 380
344 381
344 382
344 383
344 385
344 389
344 391
344 396
344 401
344 404
344 410
344 414
344 419
344 433
344 438
344 459
344 463
344 464
344 469
344 474
344 476
344 489
344 490
344 500
344 503
344 509
344 513
344 516
344 519
344 527
344 528
344 531
344 533
344 534
344 538
344 542
344 545
344 546
344 548
344 549
344 551
344 552
344 553
344 554
344 563
344 566
344 567
344 569
344 570
344 575
344 581
344 593
444 12
444 16
444 26
444 28
444 35
444 37
444 43
444 48
444 49
444 59
444 68
444 82
444 85
444 89
444 92
444 96
444 98
444 107
444 108
444 113
444 115
444 119
444 127
444 132
444 143
444 146
444 147
444 150
444 156
444 162
444 164
444 167
444 168
444 185
444 195
444 197
444 212
444 213
444 215
444 218
444 220
444 229
444 238
444 239
444 242
444 244
444 246
444 248
444 256
444 257
444 269
444 288
444 293
444 300
444 303
444 304
444 306
444 317
444 326
444 329
444 330
444 340
444 348
444 351
444 353
444 356
444 359
444 364
444 375
444 383
444 385
444 397
444 402
444 404
444 414
444 415
444 434
444 436
444 438
444 439
444 440
444 444
444 450
444 451
444 454
444 455
444 464
444 472
444 481
444 494
444 499
444 500
444 509
444 512
444 514
444 520
444 523
444 529
444 536
444 537
444 538
444 541
444 552
444 555
444 556
444 564
444 566
444 572
444 573
444 576
444 579
444 584
444 589
444 597
